assets/logs/16_10x10_clingo/16_10x10_clingo.solution.log

-----------------------------------------
| 69|  0| 13| 34| 49| 63|  9| 59| 41|  0|
-----------------------------------------
| 15| 36| 71| 65| 11| 32| 51| 45|  7|  0|
-----------------------------------------
| 73| 67| 17|  6| 28| 47| 61| 39| 57| 43|
-----------------------------------------
| 50|  4| 38|  0| 19|  0| 30| 53| 78|  5|
-----------------------------------------
| 40| 75| 48|  2|  8| 26| 80| 74| 37| 55|
-----------------------------------------
| 46| 52| 42| 24| 82| 21| 10|  0|  3| 76|
-----------------------------------------
| 77| 87|  0| 14|  0| 22| 84| 35| 72| 31|
-----------------------------------------
| 54| 44|  0| 81|  0| 12| 23| 29| 66|  1|
-----------------------------------------
| 85| 79| 16| 58| 25| 86| 20| 62| 33| 70|
-----------------------------------------
|  0| 56| 83| 88| 18| 60| 27| 68|  0| 64|
-----------------------------------------

| n = 10 | k = 10 | coverage = 97, 97.0%
 Time 300.0
 Name 16_10x10_clingo

