assets/logs/16_10x10_clingo/16_10x10_clingo.log
clingo version 5.4.0
Reading from ...s/logs/16_10x10_clingo/knights_tour.lp ...
Solving...
Answer: 1
occ(1,8,5) occ(1,7,5) occ(1,4,6) occ(1,7,3) occ(1,4,4) occ(1,6,8) occ(1,2,10) occ(1,1,2) occ(1,8,3) occ(1,10,9) occ(2,8,10) occ(3,5,4) coverage(6)
Optimization: -6
Answer: 2
occ(1,8,5) occ(1,7,5) occ(1,4,6) occ(1,7,3) occ(1,4,4) occ(1,6,8) occ(1,2,10) occ(1,1,2) occ(1,8,3) occ(1,10,9) occ(2,8,10) occ(3,5,4) coverage(47) occ(18,1,9) occ(22,1,7) occ(45,1,5) occ(64,1,6) occ(70,1,3) occ(15,2,7) occ(24,2,9) occ(31,2,1) occ(41,2,2) occ(62,2,8) occ(66,2,4) occ(72,2,5) occ(16,3,10) occ(17,3,5) occ(20,3,8) occ(29,3,3) occ(43,3,4) occ(68,3,2) occ(74,3,7) occ(13,4,8) occ(19,4,3) occ(26,4,10) occ(33,4,2) occ(39,4,1) occ(60,4,9) occ(9,5,5) occ(14,5,9) occ(21,5,1) occ(27,5,2) occ(28,5,8) occ(37,5,3) occ(76,5,6) occ(4,6,9) occ(5,6,2) occ(11,6,7) occ(23,6,3) occ(32,6,5) occ(35,6,1) occ(58,6,10) occ(78,6,4) occ(7,7,4) occ(12,7,10) occ(25,7,1) occ(30,7,7) occ(40,7,6) occ(50,7,9) occ(80,7,2) occ(6,8,8) occ(34,8,6) occ(44,8,7) occ(56,8,9) occ(86,8,2) occ(90,8,4) occ(10,9,9) occ(38,9,7) occ(42,9,5) occ(48,9,8) occ(52,9,10) occ(82,9,3) occ(92,9,6) occ(96,9,2) occ(8,10,7) occ(36,10,5) occ(46,10,6) occ(54,10,8) occ(84,10,1) occ(88,10,3) occ(94,10,4)
Optimization: -47
Answer: 3
occ(1,8,5) occ(1,7,5) occ(1,4,6) occ(1,7,3) occ(1,4,4) occ(1,6,8) occ(1,2,10) occ(1,1,2) occ(1,8,3) occ(1,10,9) occ(2,8,10) occ(3,5,4) coverage(49) occ(18,1,9) occ(22,1,7) occ(45,1,5) occ(64,1,6) occ(70,1,3) occ(15,2,7) occ(24,2,9) occ(31,2,1) occ(41,2,2) occ(47,2,3) occ(62,2,8) occ(66,2,4) occ(72,2,5) occ(16,3,10) occ(17,3,5) occ(20,3,8) occ(29,3,3) occ(43,3,4) occ(68,3,2) occ(74,3,7) occ(13,4,8) occ(19,4,3) occ(26,4,10) occ(33,4,2) occ(39,4,1) occ(60,4,9) occ(9,5,5) occ(14,5,9) occ(21,5,1) occ(27,5,2) occ(28,5,8) occ(37,5,3) occ(76,5,6) occ(4,6,9) occ(5,6,2) occ(11,6,7) occ(23,6,3) occ(32,6,5) occ(35,6,1) occ(58,6,10) occ(78,6,4) occ(7,7,4) occ(12,7,10) occ(25,7,1) occ(30,7,7) occ(40,7,6) occ(50,7,9) occ(80,7,2) occ(6,8,8) occ(34,8,6) occ(44,8,7) occ(56,8,9) occ(86,8,2) occ(90,8,4) occ(10,9,9) occ(38,9,7) occ(42,9,5) occ(48,9,8) occ(52,9,10) occ(82,9,3) occ(92,9,6) occ(96,9,2) occ(8,10,7) occ(36,10,5) occ(46,10,6) occ(54,10,8) occ(84,10,1) occ(88,10,3) occ(94,10,4)
Optimization: -49
Answer: 4
occ(1,8,5) occ(1,7,5) occ(1,4,6) occ(1,7,3) occ(1,4,4) occ(1,6,8) occ(1,2,10) occ(1,1,2) occ(1,8,3) occ(1,10,9) occ(2,8,10) occ(3,5,4) coverage(51) occ(18,1,9) occ(22,1,7) occ(45,1,5) occ(49,1,1) occ(64,1,6) occ(70,1,3) occ(15,2,7) occ(24,2,9) occ(31,2,1) occ(41,2,2) occ(47,2,3) occ(62,2,8) occ(66,2,4) occ(72,2,5) occ(16,3,10) occ(17,3,5) occ(20,3,8) occ(29,3,3) occ(43,3,4) occ(68,3,2) occ(74,3,7) occ(13,4,8) occ(19,4,3) occ(26,4,10) occ(33,4,2) occ(39,4,1) occ(60,4,9) occ(9,5,5) occ(14,5,9) occ(21,5,1) occ(27,5,2) occ(28,5,8) occ(37,5,3) occ(76,5,6) occ(4,6,9) occ(5,6,2) occ(11,6,7) occ(23,6,3) occ(32,6,5) occ(35,6,1) occ(58,6,10) occ(78,6,4) occ(7,7,4) occ(12,7,10) occ(25,7,1) occ(30,7,7) occ(40,7,6) occ(50,7,9) occ(80,7,2) occ(6,8,8) occ(34,8,6) occ(44,8,7) occ(56,8,9) occ(86,8,2) occ(90,8,4) occ(10,9,9) occ(38,9,7) occ(42,9,5) occ(48,9,8) occ(52,9,10) occ(82,9,3) occ(92,9,6) occ(96,9,2) occ(8,10,7) occ(36,10,5) occ(46,10,6) occ(54,10,8) occ(84,10,1) occ(88,10,3) occ(94,10,4)
Optimization: -51
Answer: 5
occ(1,8,5) occ(1,7,5) occ(1,4,6) occ(1,7,3) occ(1,4,4) occ(1,6,8) occ(1,2,10) occ(1,1,2) occ(1,8,3) occ(1,10,9) occ(2,8,10) occ(3,5,4) coverage(53) occ(18,1,9) occ(22,1,7) occ(45,1,5) occ(64,1,6) occ(70,1,3) occ(15,2,7) occ(24,2,9) occ(31,2,1) occ(41,2,2) occ(62,2,8) occ(66,2,4) occ(72,2,5) occ(16,3,10) occ(17,3,5) occ(20,3,8) occ(29,3,3) occ(43,3,4) occ(47,3,6) occ(68,3,2) occ(74,3,7) occ(13,4,8) occ(19,4,3) occ(26,4,10) occ(33,4,2) occ(39,4,1) occ(51,4,5) occ(60,4,9) occ(9,5,5) occ(14,5,9) occ(21,5,1) occ(27,5,2) occ(28,5,8) occ(37,5,3) occ(49,5,7) occ(76,5,6) occ(4,6,9) occ(5,6,2) occ(11,6,7) occ(23,6,3) occ(32,6,5) occ(35,6,1) occ(58,6,10) occ(78,6,4) occ(7,7,4) occ(12,7,10) occ(25,7,1) occ(30,7,7) occ(40,7,6) occ(50,7,9) occ(80,7,2) occ(6,8,8) occ(34,8,6) occ(44,8,7) occ(56,8,9) occ(86,8,2) occ(90,8,4) occ(10,9,9) occ(38,9,7) occ(42,9,5) occ(48,9,8) occ(52,9,10) occ(82,9,3) occ(92,9,6) occ(96,9,2) occ(8,10,7) occ(36,10,5) occ(46,10,6) occ(54,10,8) occ(84,10,1) occ(88,10,3) occ(94,10,4)
Optimization: -53
Answer: 6
occ(1,8,5) occ(1,7,5) occ(1,4,6) occ(1,7,3) occ(1,4,4) occ(1,6,8) occ(1,2,10) occ(1,1,2) occ(1,8,3) occ(1,10,9) occ(2,8,10) occ(3,5,4) coverage(55) occ(18,1,9) occ(22,1,7) occ(45,1,5) occ(64,1,6) occ(70,1,3) occ(15,2,7) occ(24,2,9) occ(31,2,1) occ(41,2,2) occ(53,2,6) occ(62,2,8) occ(66,2,4) occ(72,2,5) occ(16,3,10) occ(17,3,5) occ(20,3,8) occ(29,3,3) occ(43,3,4) occ(47,3,6) occ(68,3,2) occ(74,3,7) occ(13,4,8) occ(19,4,3) occ(26,4,10) occ(33,4,2) occ(39,4,1) occ(51,4,5) occ(60,4,9) occ(9,5,5) occ(14,5,9) occ(21,5,1) occ(27,5,2) occ(28,5,8) occ(37,5,3) occ(49,5,7) occ(76,5,6) occ(4,6,9) occ(5,6,2) occ(11,6,7) occ(23,6,3) occ(32,6,5) occ(35,6,1) occ(58,6,10) occ(78,6,4) occ(7,7,4) occ(12,7,10) occ(25,7,1) occ(30,7,7) occ(40,7,6) occ(50,7,9) occ(80,7,2) occ(6,8,8) occ(34,8,6) occ(44,8,7) occ(56,8,9) occ(86,8,2) occ(90,8,4) occ(10,9,9) occ(38,9,7) occ(42,9,5) occ(48,9,8) occ(52,9,10) occ(82,9,3) occ(92,9,6) occ(96,9,2) occ(8,10,7) occ(36,10,5) occ(46,10,6) occ(54,10,8) occ(84,10,1) occ(88,10,3) occ(94,10,4)
Optimization: -55
Answer: 7
occ(1,8,5) occ(1,7,5) occ(1,4,6) occ(1,7,3) occ(1,4,4) occ(1,6,8) occ(1,2,10) occ(1,1,2) occ(1,8,3) occ(1,10,9) occ(2,8,10) occ(3,5,4) coverage(57) occ(18,1,9) occ(22,1,7) occ(45,1,5) occ(55,1,8) occ(64,1,6) occ(70,1,3) occ(15,2,7) occ(24,2,9) occ(31,2,1) occ(41,2,2) occ(53,2,6) occ(62,2,8) occ(66,2,4) occ(72,2,5) occ(16,3,10) occ(17,3,5) occ(20,3,8) occ(29,3,3) occ(43,3,4) occ(47,3,6) occ(68,3,2) occ(74,3,7) occ(13,4,8) occ(19,4,3) occ(26,4,10) occ(33,4,2) occ(39,4,1) occ(51,4,5) occ(60,4,9) occ(9,5,5) occ(14,5,9) occ(21,5,1) occ(27,5,2) occ(28,5,8) occ(37,5,3) occ(49,5,7) occ(76,5,6) occ(4,6,9) occ(5,6,2) occ(11,6,7) occ(23,6,3) occ(32,6,5) occ(35,6,1) occ(58,6,10) occ(78,6,4) occ(7,7,4) occ(12,7,10) occ(25,7,1) occ(30,7,7) occ(40,7,6) occ(50,7,9) occ(80,7,2) occ(6,8,8) occ(34,8,6) occ(44,8,7) occ(56,8,9) occ(86,8,2) occ(90,8,4) occ(10,9,9) occ(38,9,7) occ(42,9,5) occ(48,9,8) occ(52,9,10) occ(82,9,3) occ(92,9,6) occ(96,9,2) occ(8,10,7) occ(36,10,5) occ(46,10,6) occ(54,10,8) occ(84,10,1) occ(88,10,3) occ(94,10,4)
Optimization: -57
Answer: 8
occ(1,8,5) occ(1,7,5) occ(1,4,6) occ(1,7,3) occ(1,4,4) occ(1,6,8) occ(1,2,10) occ(1,1,2) occ(1,8,3) occ(1,10,9) occ(2,8,10) occ(3,5,4) coverage(59) occ(18,1,9) occ(22,1,7) occ(45,1,5) occ(55,1,8) occ(64,1,6) occ(70,1,3) occ(15,2,7) occ(24,2,9) occ(31,2,1) occ(41,2,2) occ(53,2,6) occ(62,2,8) occ(66,2,4) occ(72,2,5) occ(16,3,10) occ(17,3,5) occ(20,3,8) occ(29,3,3) occ(43,3,4) occ(47,3,6) occ(57,3,9) occ(68,3,2) occ(74,3,7) occ(13,4,8) occ(19,4,3) occ(26,4,10) occ(33,4,2) occ(39,4,1) occ(51,4,5) occ(60,4,9) occ(9,5,5) occ(14,5,9) occ(21,5,1) occ(27,5,2) occ(28,5,8) occ(37,5,3) occ(49,5,7) occ(76,5,6) occ(4,6,9) occ(5,6,2) occ(11,6,7) occ(23,6,3) occ(32,6,5) occ(35,6,1) occ(58,6,10) occ(78,6,4) occ(7,7,4) occ(12,7,10) occ(25,7,1) occ(30,7,7) occ(40,7,6) occ(50,7,9) occ(80,7,2) occ(6,8,8) occ(34,8,6) occ(44,8,7) occ(56,8,9) occ(86,8,2) occ(90,8,4) occ(10,9,9) occ(38,9,7) occ(42,9,5) occ(48,9,8) occ(52,9,10) occ(82,9,3) occ(92,9,6) occ(96,9,2) occ(8,10,7) occ(36,10,5) occ(46,10,6) occ(54,10,8) occ(84,10,1) occ(88,10,3) occ(94,10,4)
Optimization: -59
Answer: 9
occ(1,8,5) occ(1,7,5) occ(1,4,6) occ(1,7,3) occ(1,4,4) occ(1,6,8) occ(1,2,10) occ(1,1,2) occ(1,8,3) occ(1,10,9) occ(2,8,10) occ(3,5,4) coverage(61) occ(18,1,9) occ(22,1,7) occ(45,1,5) occ(55,1,8) occ(59,1,10) occ(64,1,6) occ(70,1,3) occ(15,2,7) occ(24,2,9) occ(31,2,1) occ(41,2,2) occ(53,2,6) occ(62,2,8) occ(66,2,4) occ(72,2,5) occ(16,3,10) occ(17,3,5) occ(20,3,8) occ(29,3,3) occ(43,3,4) occ(47,3,6) occ(57,3,9) occ(68,3,2) occ(74,3,7) occ(13,4,8) occ(19,4,3) occ(26,4,10) occ(33,4,2) occ(39,4,1) occ(51,4,5) occ(60,4,9) occ(9,5,5) occ(14,5,9) occ(21,5,1) occ(27,5,2) occ(28,5,8) occ(37,5,3) occ(49,5,7) occ(76,5,6) occ(4,6,9) occ(5,6,2) occ(11,6,7) occ(23,6,3) occ(32,6,5) occ(35,6,1) occ(58,6,10) occ(78,6,4) occ(7,7,4) occ(12,7,10) occ(25,7,1) occ(30,7,7) occ(40,7,6) occ(50,7,9) occ(80,7,2) occ(6,8,8) occ(34,8,6) occ(44,8,7) occ(56,8,9) occ(86,8,2) occ(90,8,4) occ(10,9,9) occ(38,9,7) occ(42,9,5) occ(48,9,8) occ(52,9,10) occ(82,9,3) occ(92,9,6) occ(96,9,2) occ(8,10,7) occ(36,10,5) occ(46,10,6) occ(54,10,8) occ(84,10,1) occ(88,10,3) occ(94,10,4)
Optimization: -61
Answer: 10
occ(1,8,5) occ(1,7,5) occ(1,4,6) occ(1,7,3) occ(1,4,4) occ(1,6,8) occ(1,2,10) occ(1,1,2) occ(1,8,3) occ(1,10,9) occ(2,8,10) occ(3,5,4) coverage(63) occ(18,1,9) occ(22,1,7) occ(45,1,5) occ(59,1,8) occ(64,1,6) occ(70,1,3) occ(15,2,7) occ(24,2,9) occ(31,2,1) occ(41,2,2) occ(57,2,6) occ(62,2,8) occ(66,2,4) occ(72,2,5) occ(16,3,10) occ(17,3,5) occ(20,3,8) occ(29,3,3) occ(43,3,4) occ(47,3,6) occ(61,3,9) occ(68,3,2) occ(74,3,7) occ(13,4,8) occ(19,4,3) occ(26,4,10) occ(33,4,2) occ(39,4,1) occ(51,4,5) occ(55,4,7) occ(60,4,9) occ(9,5,5) occ(14,5,9) occ(21,5,1) occ(27,5,2) occ(28,5,8) occ(37,5,3) occ(49,5,7) occ(76,5,6) occ(4,6,9) occ(5,6,2) occ(11,6,7) occ(23,6,3) occ(32,6,5) occ(35,6,1) occ(53,6,6) occ(58,6,10) occ(78,6,4) occ(7,7,4) occ(12,7,10) occ(25,7,1) occ(30,7,7) occ(40,7,6) occ(50,7,9) occ(80,7,2) occ(6,8,8) occ(34,8,6) occ(44,8,7) occ(56,8,9) occ(86,8,2) occ(90,8,4) occ(10,9,9) occ(38,9,7) occ(42,9,5) occ(48,9,8) occ(52,9,10) occ(82,9,3) occ(92,9,6) occ(96,9,2) occ(8,10,7) occ(36,10,5) occ(46,10,6) occ(54,10,8) occ(84,10,1) occ(88,10,3) occ(94,10,4)
Optimization: -63
Answer: 11
occ(1,8,5) occ(1,7,5) occ(1,4,6) occ(1,7,3) occ(1,4,4) occ(1,6,8) occ(1,2,10) occ(1,1,2) occ(1,8,3) occ(1,10,9) occ(2,8,10) occ(3,5,4) coverage(65) occ(18,1,9) occ(22,1,7) occ(45,1,5) occ(59,1,8) occ(63,1,10) occ(64,1,6) occ(70,1,3) occ(15,2,7) occ(24,2,9) occ(31,2,1) occ(41,2,2) occ(57,2,6) occ(62,2,8) occ(66,2,4) occ(72,2,5) occ(16,3,10) occ(17,3,5) occ(20,3,8) occ(29,3,3) occ(43,3,4) occ(47,3,6) occ(61,3,9) occ(68,3,2) occ(74,3,7) occ(13,4,8) occ(19,4,3) occ(26,4,10) occ(33,4,2) occ(39,4,1) occ(51,4,5) occ(55,4,7) occ(60,4,9) occ(9,5,5) occ(14,5,9) occ(21,5,1) occ(27,5,2) occ(28,5,8) occ(37,5,3) occ(49,5,7) occ(76,5,6) occ(4,6,9) occ(5,6,2) occ(11,6,7) occ(23,6,3) occ(32,6,5) occ(35,6,1) occ(53,6,6) occ(58,6,10) occ(78,6,4) occ(7,7,4) occ(12,7,10) occ(25,7,1) occ(30,7,7) occ(40,7,6) occ(50,7,9) occ(80,7,2) occ(6,8,8) occ(34,8,6) occ(44,8,7) occ(56,8,9) occ(86,8,2) occ(90,8,4) occ(10,9,9) occ(38,9,7) occ(42,9,5) occ(48,9,8) occ(52,9,10) occ(82,9,3) occ(92,9,6) occ(96,9,2) occ(8,10,7) occ(36,10,5) occ(46,10,6) occ(54,10,8) occ(84,10,1) occ(88,10,3) occ(94,10,4)
Optimization: -65
Answer: 12
occ(1,8,5) occ(1,7,5) occ(1,4,6) occ(1,7,3) occ(1,4,4) occ(1,6,8) occ(1,2,10) occ(1,1,2) occ(1,8,3) occ(1,10,9) occ(2,8,10) occ(3,5,4) coverage(67) occ(18,1,9) occ(22,1,7) occ(45,1,5) occ(63,1,8) occ(64,1,6) occ(70,1,3) occ(15,2,3) occ(24,2,9) occ(31,2,1) occ(41,2,2) occ(47,2,7) occ(61,2,6) occ(62,2,8) occ(66,2,4) occ(72,2,5) occ(13,3,5) occ(16,3,10) occ(17,3,1) occ(20,3,8) occ(29,3,3) occ(43,3,4) occ(51,3,6) occ(65,3,9) occ(68,3,2) occ(74,3,7) occ(11,4,7) occ(19,4,3) occ(26,4,10) occ(33,4,2) occ(39,4,1) occ(49,4,8) occ(59,4,5) occ(60,4,9) occ(9,5,5) occ(14,5,9) occ(21,5,1) occ(27,5,2) occ(28,5,8) occ(37,5,3) occ(53,5,7) occ(76,5,6) occ(4,6,9) occ(5,6,2) occ(23,6,3) occ(32,6,5) occ(35,6,1) occ(57,6,6) occ(58,6,10) occ(78,6,4) occ(7,7,4) occ(12,7,10) occ(25,7,1) occ(30,7,7) occ(40,7,6) occ(50,7,9) occ(55,7,8) occ(80,7,2) occ(6,8,8) occ(34,8,6) occ(44,8,7) occ(56,8,9) occ(86,8,2) occ(90,8,4) occ(10,9,9) occ(38,9,7) occ(42,9,5) occ(48,9,8) occ(52,9,10) occ(82,9,3) occ(92,9,6) occ(96,9,2) occ(8,10,7) occ(36,10,5) occ(46,10,6) occ(54,10,8) occ(84,10,1) occ(88,10,3) occ(94,10,4)
Optimization: -67
Answer: 13
occ(1,8,5) occ(1,7,5) occ(1,4,6) occ(1,7,3) occ(1,4,4) occ(1,6,8) occ(1,2,10) occ(1,1,2) occ(1,8,3) occ(1,10,9) occ(2,8,10) occ(3,5,4) coverage(69) occ(18,1,9) occ(22,1,7) occ(45,1,5) occ(63,1,8) occ(64,1,6) occ(67,1,10) occ(70,1,3) occ(15,2,3) occ(24,2,9) occ(31,2,1) occ(41,2,2) occ(47,2,7) occ(61,2,6) occ(62,2,8) occ(66,2,4) occ(72,2,5) occ(13,3,5) occ(16,3,10) occ(17,3,1) occ(20,3,8) occ(29,3,3) occ(43,3,4) occ(51,3,6) occ(65,3,9) occ(68,3,2) occ(74,3,7) occ(11,4,7) occ(19,4,3) occ(26,4,10) occ(33,4,2) occ(39,4,1) occ(49,4,8) occ(59,4,5) occ(60,4,9) occ(9,5,5) occ(14,5,9) occ(21,5,1) occ(27,5,2) occ(28,5,8) occ(37,5,3) occ(53,5,7) occ(76,5,6) occ(4,6,9) occ(5,6,2) occ(23,6,3) occ(32,6,5) occ(35,6,1) occ(57,6,6) occ(58,6,10) occ(78,6,4) occ(7,7,4) occ(12,7,10) occ(25,7,1) occ(30,7,7) occ(40,7,6) occ(50,7,9) occ(55,7,8) occ(80,7,2) occ(6,8,8) occ(34,8,6) occ(44,8,7) occ(56,8,9) occ(86,8,2) occ(90,8,4) occ(10,9,9) occ(38,9,7) occ(42,9,5) occ(48,9,8) occ(52,9,10) occ(82,9,3) occ(92,9,6) occ(96,9,2) occ(8,10,7) occ(36,10,5) occ(46,10,6) occ(54,10,8) occ(84,10,1) occ(88,10,3) occ(94,10,4)
Optimization: -69
Answer: 14
occ(1,8,5) occ(1,7,5) occ(1,4,6) occ(1,7,3) occ(1,4,4) occ(1,6,8) occ(1,2,10) occ(1,1,2) occ(1,8,3) occ(1,10,9) occ(2,8,10) occ(3,5,4) coverage(71) occ(18,1,3) occ(37,1,1) occ(43,1,6) occ(49,1,9) occ(55,1,8) occ(62,1,7) occ(16,2,1) occ(22,2,2) occ(35,2,3) occ(41,2,4) occ(45,2,8) occ(51,2,7) occ(57,2,6) occ(60,2,5) occ(64,2,9) occ(5,3,3) occ(17,3,5) occ(20,3,4) occ(33,3,1) occ(39,3,2) occ(47,3,10) occ(53,3,9) occ(58,3,7) occ(59,3,8) occ(63,3,6) occ(7,4,5) occ(14,4,2) occ(15,4,7) occ(23,4,3) occ(24,4,1) occ(56,4,9) occ(65,4,8) occ(66,4,10) occ(10,5,3) occ(13,5,5) occ(19,5,6) occ(25,5,1) occ(31,5,2) occ(61,5,7) occ(68,5,8) occ(4,6,9) occ(8,6,5) occ(9,6,6) occ(12,6,1) occ(21,6,4) occ(26,6,2) occ(27,6,3) occ(54,6,10) occ(67,6,7) occ(6,7,7) occ(11,7,4) occ(29,7,1) occ(40,7,6) occ(70,7,9) occ(80,7,2) occ(28,8,1) occ(34,8,6) occ(44,8,7) occ(52,8,9) occ(69,8,8) occ(78,8,4) occ(86,8,2) occ(32,9,4) occ(38,9,7) occ(42,9,5) occ(48,9,8) occ(72,9,10) occ(76,9,6) occ(82,9,3) occ(90,9,1) occ(30,10,2) occ(36,10,5) occ(46,10,6) occ(50,10,10) occ(74,10,8) occ(84,10,1) occ(88,10,3)
Optimization: -71
Answer: 15
occ(1,8,5) occ(1,7,5) occ(1,4,6) occ(1,7,3) occ(1,4,4) occ(1,6,8) occ(1,2,10) occ(1,1,2) occ(1,8,3) occ(1,10,9) occ(2,8,10) occ(3,5,4) coverage(73) occ(33,1,5) occ(37,1,9) occ(40,1,8) occ(46,1,7) occ(50,1,3) occ(51,1,4) occ(58,1,1) occ(92,1,6) occ(13,2,6) occ(29,2,8) occ(35,2,7) occ(44,2,9) occ(48,2,5) occ(52,2,1) occ(53,2,2) occ(56,2,3) occ(90,2,4) occ(11,3,4) occ(15,3,8) occ(31,3,6) occ(38,3,9) occ(39,3,10) occ(42,3,7) occ(49,3,5) occ(60,3,2) occ(7,4,7) occ(17,4,10) occ(27,4,9) occ(45,4,8) occ(54,4,2) occ(55,4,1) occ(59,4,3) occ(88,4,5) occ(9,5,5) occ(19,5,8) occ(25,5,7) occ(36,5,10) occ(41,5,9) occ(47,5,6) occ(61,5,1) occ(62,5,3) occ(84,5,2) occ(4,6,9) occ(5,6,6) occ(8,6,5) occ(21,6,10) occ(43,6,7) occ(57,6,2) occ(64,6,1) occ(86,6,4) occ(6,7,7) occ(23,7,8) occ(34,7,9) occ(63,7,2) occ(68,7,4) occ(71,7,6) occ(82,7,1) occ(10,8,6) occ(16,8,1) occ(24,8,9) occ(32,8,7) occ(66,8,2) occ(69,8,4) occ(74,8,8) occ(12,9,4) occ(18,9,3) occ(22,9,7) occ(28,9,8) occ(65,9,1) occ(70,9,5) occ(76,9,6) occ(80,9,2) occ(14,10,2) occ(20,10,5) occ(26,10,10) occ(30,10,6) occ(67,10,3) occ(72,10,7) occ(78,10,4)
Optimization: -73
Answer: 16
occ(1,8,5) occ(1,7,5) occ(1,4,6) occ(1,7,3) occ(1,4,4) occ(1,6,8) occ(1,2,10) occ(1,1,2) occ(1,8,3) occ(1,10,9) occ(2,8,10) occ(3,5,4) coverage(75) occ(33,1,5) occ(36,1,6) occ(37,1,9) occ(46,1,7) occ(47,1,8) occ(50,1,3) occ(51,1,4) occ(58,1,1) occ(35,2,7) occ(38,2,8) occ(44,2,9) occ(48,2,5) occ(49,2,6) occ(52,2,1) occ(53,2,2) occ(56,2,3) occ(62,2,4) occ(31,3,4) occ(34,3,5) occ(39,3,8) occ(42,3,7) occ(45,3,9) occ(60,3,2) occ(64,3,6) occ(7,4,7) occ(40,4,9) occ(41,4,10) occ(54,4,2) occ(55,4,1) occ(59,4,3) occ(66,4,8) occ(88,4,5) occ(9,5,9) occ(22,5,3) occ(23,5,2) occ(29,5,5) occ(32,5,6) occ(43,5,8) occ(61,5,1) occ(68,5,10) occ(86,5,7) occ(5,6,6) occ(20,6,1) occ(21,6,4) occ(27,6,3) occ(28,6,5) occ(57,6,2) occ(82,6,10) occ(11,7,10) occ(19,7,6) occ(24,7,4) occ(25,7,1) occ(30,7,7) occ(63,7,2) occ(70,7,9) occ(84,7,8) occ(12,8,1) occ(18,8,2) occ(26,8,6) occ(69,8,4) occ(74,8,8) occ(80,8,9) occ(4,9,8) occ(8,9,4) occ(13,9,9) occ(14,9,3) occ(17,9,5) occ(65,9,1) occ(71,9,2) occ(72,9,10) occ(76,9,6) occ(6,10,6) occ(10,10,2) occ(15,10,7) occ(16,10,1) occ(67,10,3) occ(73,10,4) occ(78,10,8)
Optimization: -75
Answer: 17
occ(1,8,5) occ(1,7,5) occ(1,4,6) occ(1,7,3) occ(1,4,4) occ(1,6,8) occ(1,2,10) occ(1,1,2) occ(1,8,3) occ(1,10,9) occ(2,8,10) occ(3,5,4) coverage(78) occ(9,1,3) occ(25,1,9) occ(62,1,5) occ(67,1,6) occ(7,2,1) occ(13,2,2) occ(20,2,5) occ(29,2,6) occ(30,2,8) occ(60,2,7) occ(64,2,3) occ(69,2,4) occ(11,3,4) occ(18,3,3) occ(22,3,7) occ(23,3,10) occ(27,3,8) occ(28,3,6) occ(58,3,9) occ(65,3,5) occ(66,3,1) occ(71,3,2) occ(5,4,2) occ(15,4,3) occ(16,4,1) occ(26,4,8) occ(31,4,5) occ(32,4,9) occ(50,4,10) occ(63,4,7) occ(17,5,5) occ(21,5,9) occ(24,5,6) occ(33,5,7) occ(52,5,8) occ(56,5,10) occ(57,5,3) occ(68,5,2) occ(73,5,1) occ(14,6,2) occ(19,6,7) occ(34,6,10) occ(35,6,5) occ(48,6,9) occ(55,6,1) occ(61,6,6) occ(70,6,4) occ(75,6,3) occ(36,7,8) occ(39,7,6) occ(43,7,10) occ(46,7,7) occ(54,7,9) occ(59,7,4) occ(72,7,2) occ(77,7,1) occ(12,8,1) occ(37,8,4) occ(38,8,6) occ(41,8,8) occ(44,8,9) occ(53,8,2) occ(4,9,8) occ(8,9,4) occ(42,9,7) occ(45,9,9) occ(49,9,5) occ(74,9,3) occ(79,9,2) occ(83,9,6) occ(6,10,6) occ(10,10,2) occ(40,10,5) occ(47,10,7) occ(51,10,3) occ(76,10,1) occ(81,10,4) occ(85,10,8)
Optimization: -78
Answer: 18
occ(1,8,5) occ(1,7,5) occ(1,4,6) occ(1,7,3) occ(1,4,4) occ(1,6,8) occ(1,2,10) occ(1,1,2) occ(1,8,3) occ(1,10,9) occ(2,8,10) occ(3,5,4) coverage(80) occ(9,1,3) occ(24,1,6) occ(29,1,9) occ(30,1,7) occ(59,1,10) occ(62,1,1) occ(63,1,8) occ(72,1,4) occ(78,1,5) occ(7,2,1) occ(20,2,5) occ(26,2,4) occ(32,2,9) occ(57,2,8) occ(64,2,3) occ(65,2,6) occ(70,2,2) occ(76,2,7) occ(11,3,4) occ(18,3,3) occ(22,3,7) occ(27,3,10) occ(28,3,6) occ(31,3,8) occ(60,3,2) occ(61,3,9) occ(66,3,1) occ(74,3,5) occ(5,4,2) occ(25,4,8) occ(34,4,10) occ(35,4,9) occ(55,4,7) occ(56,4,1) occ(67,4,5) occ(68,4,3) occ(13,5,5) occ(16,5,2) occ(23,5,10) occ(33,5,7) occ(53,5,9) occ(58,5,3) occ(85,5,1) occ(14,6,4) occ(15,6,7) occ(36,6,9) occ(37,6,10) occ(40,6,5) occ(54,6,2) occ(69,6,6) occ(83,6,3) occ(12,7,6) occ(21,7,9) occ(38,7,7) occ(39,7,8) occ(43,7,4) occ(51,7,10) occ(81,7,1) occ(8,8,9) occ(17,8,8) occ(41,8,6) occ(42,8,4) occ(46,8,2) occ(52,8,1) occ(71,8,7) occ(4,9,8) occ(10,9,7) occ(19,9,10) occ(45,9,5) occ(48,9,4) occ(49,9,9) occ(75,9,6) occ(79,9,2) occ(6,10,10) occ(44,10,3) occ(47,10,7) occ(50,10,2) occ(73,10,8) occ(77,10,4)
Optimization: -80
Answer: 19
occ(1,8,5) occ(1,7,5) occ(1,4,6) occ(1,7,3) occ(1,4,4) occ(1,6,8) occ(1,2,10) occ(1,1,2) occ(1,8,3) occ(1,10,9) occ(2,8,10) occ(3,5,4) coverage(82) occ(9,1,3) occ(24,1,6) occ(29,1,9) occ(30,1,7) occ(62,1,1) occ(63,1,8) occ(72,1,4) occ(7,2,1) occ(20,2,5) occ(26,2,4) occ(32,2,9) occ(64,2,3) occ(65,2,6) occ(70,2,2) occ(11,3,4) occ(18,3,3) occ(22,3,7) occ(27,3,10) occ(28,3,6) occ(31,3,8) occ(60,3,2) occ(61,3,9) occ(66,3,1) occ(74,3,5) occ(5,4,2) occ(25,4,8) occ(34,4,10) occ(56,4,1) occ(59,4,7) occ(67,4,5) occ(68,4,3) occ(13,5,5) occ(16,5,2) occ(23,5,10) occ(33,5,7) occ(36,5,8) occ(57,5,9) occ(58,5,3) occ(76,5,6) occ(85,5,1) occ(14,6,4) occ(15,6,7) occ(35,6,5) occ(38,6,10) occ(54,6,2) occ(69,6,6) occ(80,6,9) occ(83,6,3) occ(12,7,6) occ(21,7,9) occ(40,7,8) occ(43,7,2) occ(44,7,4) occ(55,7,10) occ(78,7,7) occ(81,7,1) occ(8,8,9) occ(17,8,8) occ(37,8,4) occ(42,8,6) occ(46,8,2) occ(52,8,1) occ(71,8,7) occ(4,9,8) occ(10,9,7) occ(19,9,10) occ(41,9,3) occ(45,9,1) occ(48,9,4) occ(49,9,5) occ(53,9,9) occ(75,9,6) occ(79,9,2) occ(6,10,10) occ(39,10,5) occ(47,10,3) occ(50,10,2) occ(51,10,7) occ(73,10,8) occ(77,10,4)
Optimization: -82
Answer: 20
occ(1,8,5) occ(1,7,5) occ(1,4,6) occ(1,7,3) occ(1,4,4) occ(1,6,8) occ(1,2,10) occ(1,1,2) occ(1,8,3) occ(1,10,9) occ(2,8,10) occ(3,5,4) coverage(83) occ(9,1,3) occ(43,1,8) occ(47,1,10) occ(66,1,7) occ(70,1,9) occ(78,1,5) occ(7,2,1) occ(30,2,2) occ(41,2,6) occ(48,2,9) occ(49,2,8) occ(56,2,3) occ(64,2,5) occ(76,2,7) occ(82,2,4) occ(11,3,2) occ(32,3,4) occ(45,3,9) occ(50,3,7) occ(54,3,5) occ(58,3,1) occ(62,3,3) occ(68,3,8) occ(72,3,10) occ(80,3,6) occ(5,4,2) occ(24,4,3) occ(28,4,1) occ(36,4,5) occ(39,4,7) occ(46,4,10) occ(51,4,9) occ(74,4,8) occ(6,5,9) occ(13,5,1) occ(34,5,3) occ(37,5,5) occ(40,5,8) occ(52,5,6) occ(60,5,2) occ(8,6,7) occ(15,6,3) occ(22,6,4) occ(26,6,2) occ(38,6,6) occ(44,6,9) occ(53,6,10) occ(4,7,8) occ(10,7,9) occ(17,7,1) occ(20,7,6) occ(27,7,2) occ(35,7,4) occ(42,7,7) occ(79,7,10) occ(16,8,7) occ(25,8,4) occ(33,8,2) occ(55,8,9) occ(63,8,1) occ(73,8,6) occ(77,8,8) occ(12,9,10) occ(18,9,5) occ(19,9,2) occ(23,9,6) occ(29,9,1) occ(57,9,7) occ(61,9,3) occ(67,9,4) occ(71,9,8) occ(81,9,9) occ(14,10,8) occ(21,10,4) occ(31,10,3) occ(59,10,5) occ(65,10,2) occ(69,10,6) occ(75,10,7)
Optimization: -83
Answer: 21
occ(1,8,5) occ(1,7,5) occ(1,4,6) occ(1,7,3) occ(1,4,4) occ(1,6,8) occ(1,2,10) occ(1,1,2) occ(1,8,3) occ(1,10,9) occ(2,8,10) occ(3,5,4) coverage(84) occ(7,1,4) occ(43,1,8) occ(47,1,10) occ(51,1,6) occ(54,1,1) occ(62,1,3) occ(66,1,7) occ(74,1,9) occ(78,1,5) occ(41,2,6) occ(49,2,8) occ(53,2,4) occ(56,2,3) occ(57,2,2) occ(60,2,1) occ(64,2,5) occ(68,2,9) occ(76,2,7) occ(5,3,3) occ(9,3,5) occ(45,3,9) occ(46,3,7) occ(52,3,2) occ(72,3,8) occ(80,3,6) occ(83,3,10) occ(13,4,8) occ(39,4,7) occ(44,4,9) occ(48,4,5) occ(55,4,3) occ(58,4,2) occ(59,4,1) occ(70,4,10) occ(8,5,8) occ(11,5,6) occ(15,5,10) occ(24,5,2) occ(30,5,1) occ(37,5,5) occ(50,5,3) occ(81,5,9) occ(82,5,7) occ(4,6,9) occ(10,6,6) occ(22,6,4) occ(28,6,3) occ(42,6,10) occ(61,6,2) occ(6,7,7) occ(12,7,8) occ(17,7,9) occ(20,7,6) occ(26,7,1) occ(32,7,2) occ(35,7,4) occ(79,7,10) occ(16,8,7) occ(29,8,4) occ(33,8,2) occ(40,8,9) occ(63,8,1) occ(73,8,6) occ(77,8,8) occ(14,9,9) occ(18,9,5) occ(19,9,10) occ(23,9,6) occ(27,9,2) occ(34,9,3) occ(38,9,7) occ(67,9,4) occ(71,9,8) occ(21,10,8) occ(25,10,4) occ(31,10,3) occ(36,10,5) occ(65,10,2) occ(69,10,6) occ(75,10,7)
Optimization: -84
Answer: 22
occ(1,8,5) occ(1,7,5) occ(1,4,6) occ(1,7,3) occ(1,4,4) occ(1,6,8) occ(1,2,10) occ(1,1,2) occ(1,8,3) occ(1,10,9) occ(2,8,10) occ(3,5,4) coverage(85) occ(7,1,4) occ(43,1,8) occ(47,1,10) occ(51,1,6) occ(54,1,1) occ(62,1,3) occ(66,1,7) occ(74,1,9) occ(78,1,5) occ(41,2,6) occ(49,2,8) occ(53,2,4) occ(56,2,3) occ(57,2,2) occ(60,2,1) occ(64,2,5) occ(68,2,9) occ(76,2,7) occ(5,3,3) occ(9,3,5) occ(45,3,9) occ(46,3,7) occ(52,3,2) occ(72,3,8) occ(80,3,6) occ(83,3,10) occ(13,4,8) occ(39,4,7) occ(44,4,9) occ(48,4,5) occ(55,4,3) occ(58,4,2) occ(59,4,1) occ(70,4,10) occ(8,5,8) occ(11,5,6) occ(15,5,10) occ(24,5,2) occ(30,5,1) occ(37,5,5) occ(50,5,3) occ(81,5,9) occ(82,5,7) occ(4,6,9) occ(10,6,6) occ(22,6,4) occ(28,6,3) occ(42,6,10) occ(61,6,2) occ(84,6,5) occ(6,7,7) occ(12,7,8) occ(17,7,9) occ(20,7,6) occ(26,7,1) occ(32,7,2) occ(35,7,4) occ(79,7,10) occ(16,8,7) occ(29,8,4) occ(33,8,2) occ(40,8,9) occ(63,8,1) occ(73,8,6) occ(77,8,8) occ(14,9,9) occ(18,9,5) occ(19,9,10) occ(23,9,6) occ(27,9,2) occ(34,9,3) occ(38,9,7) occ(67,9,4) occ(71,9,8) occ(21,10,8) occ(25,10,4) occ(31,10,3) occ(36,10,5) occ(65,10,2) occ(69,10,6) occ(75,10,7)
Optimization: -85
Answer: 23
occ(1,8,5) occ(1,7,5) occ(1,4,6) occ(1,7,3) occ(1,4,4) occ(1,6,8) occ(1,2,10) occ(1,1,2) occ(1,8,3) occ(1,10,9) occ(2,8,10) occ(3,5,4) coverage(86) occ(10,1,9) occ(11,1,4) occ(54,1,1) occ(62,1,3) occ(66,1,7) occ(80,1,6) occ(84,1,10) occ(9,2,2) occ(15,2,7) occ(49,2,6) occ(56,2,3) occ(60,2,1) occ(64,2,5) occ(68,2,9) occ(78,2,4) occ(82,2,8) occ(5,3,3) occ(8,3,8) occ(12,3,10) occ(13,3,5) occ(17,3,9) occ(28,3,6) occ(37,3,1) occ(47,3,4) occ(52,3,2) occ(70,3,7) occ(6,4,10) occ(7,4,1) occ(26,4,8) occ(32,4,9) occ(39,4,3) occ(51,4,7) occ(58,4,2) occ(76,4,5) occ(14,5,9) occ(19,5,8) occ(24,5,10) occ(30,5,7) occ(35,5,2) occ(45,5,3) occ(50,5,1) occ(53,5,5) occ(72,5,6) occ(4,6,9) occ(23,6,5) occ(34,6,10) occ(41,6,2) occ(55,6,3) occ(74,6,4) occ(16,7,10) occ(21,7,7) occ(22,7,9) occ(33,7,1) occ(36,7,8) occ(40,7,6) occ(43,7,4) occ(48,7,2) occ(20,8,7) occ(25,8,4) occ(57,8,2) occ(63,8,1) occ(69,8,6) occ(73,8,8) occ(79,8,9) occ(18,9,9) occ(27,9,6) occ(31,9,2) occ(38,9,7) occ(42,9,5) occ(46,9,1) occ(61,9,3) occ(67,9,4) occ(75,9,10) occ(83,9,8) occ(29,10,4) occ(44,10,3) occ(59,10,1) occ(65,10,2) occ(71,10,7) occ(77,10,8) occ(81,10,10) occ(85,10,6)
Optimization: -86
Answer: 24
occ(1,8,5) occ(1,7,5) occ(1,4,6) occ(1,7,3) occ(1,4,4) occ(1,6,8) occ(1,2,10) occ(1,1,2) occ(1,8,3) occ(1,10,9) occ(2,8,10) occ(3,5,4) coverage(87) occ(10,1,7) occ(19,1,4) occ(65,1,3) occ(69,1,5) occ(73,1,9) occ(76,1,6) occ(7,2,3) occ(8,2,9) occ(12,2,5) occ(17,2,2) occ(63,2,1) occ(71,2,7) occ(74,2,4) occ(77,2,6) occ(78,2,8) occ(9,3,1) occ(14,3,7) occ(21,3,5) occ(36,3,6) occ(61,3,3) occ(67,3,4) occ(72,3,2) occ(75,3,8) occ(80,3,10) occ(81,3,9) occ(5,4,2) occ(6,4,10) occ(11,4,3) occ(15,4,1) occ(16,4,9) occ(38,4,8) occ(59,4,5) occ(79,4,7) occ(18,5,7) occ(23,5,6) occ(27,5,2) occ(33,5,1) occ(34,5,5) occ(40,5,10) occ(70,5,3) occ(82,5,9) occ(83,5,8) occ(4,6,9) occ(13,6,2) occ(25,6,4) occ(31,6,3) occ(57,6,6) occ(68,6,5) occ(84,6,7) occ(85,6,10) occ(20,7,8) occ(24,7,10) occ(29,7,1) occ(32,7,4) occ(35,7,2) occ(42,7,9) occ(56,7,6) occ(66,7,7) occ(26,8,8) occ(41,8,2) occ(47,8,1) occ(54,8,4) occ(55,8,7) occ(60,8,9) occ(86,8,6) occ(22,9,9) occ(30,9,5) occ(37,9,1) occ(44,9,10) occ(45,9,3) occ(48,9,6) occ(51,9,4) occ(52,9,2) occ(58,9,7) occ(64,9,8) occ(28,10,7) occ(39,10,3) occ(43,10,1) occ(46,10,8) occ(49,10,2) occ(50,10,4) occ(53,10,6) occ(62,10,10)
Optimization: -87
Answer: 25
occ(1,8,5) occ(1,7,5) occ(1,4,6) occ(1,7,3) occ(1,4,4) occ(1,6,8) occ(1,2,10) occ(1,1,2) occ(1,8,3) occ(1,10,9) occ(2,8,10) occ(3,5,4) coverage(88) occ(20,1,6) occ(24,1,8) occ(28,1,4) occ(54,1,5) occ(57,1,3) occ(60,1,10) occ(66,1,9) occ(86,1,7) occ(18,2,4) occ(26,2,6) occ(30,2,2) occ(43,2,1) occ(52,2,3) occ(58,2,8) occ(64,2,7) occ(84,2,9) occ(14,3,5) occ(22,3,7) occ(45,3,3) occ(50,3,1) occ(55,3,4) occ(56,3,6) occ(59,3,2) occ(62,3,9) occ(68,3,10) occ(72,3,8) occ(16,4,3) occ(21,4,8) occ(32,4,1) occ(41,4,2) occ(47,4,5) occ(51,4,7) occ(76,4,9) occ(82,4,10) occ(12,5,6) occ(34,5,3) occ(48,5,2) occ(53,5,5) occ(61,5,1) occ(70,5,9) occ(74,5,7) occ(80,5,8) occ(5,6,2) occ(19,6,7) occ(23,6,9) occ(36,6,5) occ(39,6,3) occ(46,6,4) occ(49,6,6) occ(78,6,10) occ(10,7,7) occ(17,7,9) occ(37,7,1) occ(40,7,8) occ(44,7,6) occ(63,7,2) occ(79,7,4) occ(87,7,10) occ(7,8,1) occ(8,8,9) occ(15,8,7) occ(25,8,8) occ(38,8,6) occ(69,8,4) occ(77,8,2) occ(4,9,8) occ(11,9,4) occ(27,9,10) occ(31,9,6) occ(35,9,2) occ(42,9,7) occ(65,9,1) occ(73,9,3) occ(81,9,5) occ(85,9,9) occ(6,10,10) occ(9,10,2) occ(13,10,6) occ(29,10,8) occ(33,10,4) occ(67,10,3) occ(71,10,5) occ(75,10,1) occ(83,10,7)
Optimization: -88
Answer: 26
occ(1,8,5) occ(1,7,5) occ(1,4,6) occ(1,7,3) occ(1,4,4) occ(1,6,8) occ(1,2,10) occ(1,1,2) occ(1,8,3) occ(1,10,9) occ(2,8,10) occ(3,5,4) coverage(89) occ(20,1,6) occ(24,1,8) occ(28,1,4) occ(54,1,5) occ(57,1,3) occ(60,1,10) occ(66,1,9) occ(86,1,7) occ(18,2,4) occ(26,2,6) occ(30,2,2) occ(43,2,1) occ(52,2,3) occ(58,2,8) occ(64,2,7) occ(84,2,9) occ(88,2,5) occ(14,3,5) occ(22,3,7) occ(45,3,3) occ(50,3,1) occ(55,3,4) occ(56,3,6) occ(59,3,2) occ(62,3,9) occ(68,3,10) occ(72,3,8) occ(16,4,3) occ(21,4,8) occ(32,4,1) occ(41,4,2) occ(47,4,5) occ(51,4,7) occ(76,4,9) occ(82,4,10) occ(12,5,6) occ(34,5,3) occ(48,5,2) occ(53,5,5) occ(61,5,1) occ(70,5,9) occ(74,5,7) occ(80,5,8) occ(5,6,2) occ(19,6,7) occ(23,6,9) occ(36,6,5) occ(39,6,3) occ(46,6,4) occ(49,6,6) occ(78,6,10) occ(10,7,7) occ(17,7,9) occ(37,7,1) occ(40,7,8) occ(44,7,6) occ(63,7,2) occ(79,7,4) occ(87,7,10) occ(7,8,1) occ(8,8,9) occ(15,8,7) occ(25,8,8) occ(38,8,6) occ(69,8,4) occ(77,8,2) occ(4,9,8) occ(11,9,4) occ(27,9,10) occ(31,9,6) occ(35,9,2) occ(42,9,7) occ(65,9,1) occ(73,9,3) occ(81,9,5) occ(85,9,9) occ(6,10,10) occ(9,10,2) occ(13,10,6) occ(29,10,8) occ(33,10,4) occ(67,10,3) occ(71,10,5) occ(75,10,1) occ(83,10,7)
Optimization: -89
Answer: 27
occ(1,8,5) occ(1,7,5) occ(1,4,6) occ(1,7,3) occ(1,4,4) occ(1,6,8) occ(1,2,10) occ(1,1,2) occ(1,8,3) occ(1,10,9) occ(2,8,10) occ(3,5,4) coverage(90) occ(10,1,7) occ(14,1,3) occ(35,1,4) occ(42,1,9) occ(50,1,5) occ(60,1,8) occ(64,1,6) occ(70,1,1) occ(8,2,9) occ(12,2,5) occ(16,2,1) occ(33,2,6) occ(37,2,2) occ(46,2,8) occ(52,2,7) occ(66,2,4) occ(72,2,3) occ(7,3,4) occ(18,3,3) occ(29,3,5) occ(40,3,8) occ(44,3,10) occ(48,3,6) occ(58,3,9) occ(62,3,7) occ(68,3,2) occ(74,3,1) occ(5,4,2) occ(6,4,10) occ(20,4,5) occ(31,4,7) occ(39,4,3) occ(51,4,1) occ(54,4,8) occ(79,4,9) occ(9,5,5) occ(27,5,6) occ(38,5,9) occ(41,5,1) occ(49,5,3) occ(56,5,10) occ(75,5,8) occ(76,5,2) occ(81,5,7) occ(4,6,9) occ(11,6,7) occ(22,6,6) occ(25,6,4) occ(43,6,3) occ(47,6,1) occ(53,6,2) occ(77,6,10) occ(83,6,5) occ(15,7,4) occ(23,7,6) occ(32,7,10) occ(36,7,8) occ(73,7,9) occ(78,7,1) occ(85,7,7) occ(88,7,2) occ(13,8,6) occ(24,8,7) occ(30,8,8) occ(45,8,2) occ(55,8,1) occ(67,8,9) occ(82,8,4) occ(17,9,3) occ(21,9,7) occ(26,9,5) occ(34,9,9) occ(59,9,4) occ(63,9,8) occ(71,9,10) occ(80,9,2) occ(86,9,1) occ(87,9,6) occ(19,10,5) occ(28,10,7) occ(57,10,2) occ(61,10,6) occ(65,10,10) occ(69,10,8) occ(84,10,3) occ(89,10,4)
Optimization: -90
*** Info : (clingo): INTERRUPTED by signal!
SATISFIABLE

TIME LIMIT   : 1
Models       : 27+
  Optimum    : unknown
Optimization : -90
Calls        : 1
Time         : 300.000s (Solving: 298.62s 1st Model: 0.00s Unsat: 0.00s)
CPU Time     : 300.000s
